2-dimensional/CL_06_25_01.vbp
2
150 150 
25
37 27 30
77 88 72
24 79 4
30 43 88
32 53 54
74 45 64
67 65 90
30 23 26
87 97 94
69 91 28
74 77 72
66 73 49
36 42 54
82 56 19
89 53 28
47 77 61
55 40 84
77 38 23
24 38 67
73 28 53
29 28 54
44 82 16
55 21 9
27 23 54
30 52 77
