datasets/2-dimensional/CL_06_25_01.txt
150 150 
0 30 37 27 
1 72 77 88 
2 4 24 79 
3 88 30 43 
4 54 32 53 
5 64 74 45 
6 90 67 65 
7 26 30 23 
8 94 87 97 
9 28 69 91 
10 72 74 77 
11 49 66 73 
12 54 36 42 
13 19 82 56 
14 28 89 53 
15 61 47 77 
16 84 55 40 
17 23 77 38 
18 67 24 38 
19 53 73 28 
20 54 29 28 
21 16 44 82 
22 9 55 21 
23 54 27 23 
24 77 30 52 
